0000000000000000
0000000000000000
0000000000000000
0011100000111000
0001110000110000
0000111000110000
0000111100110000
0000111111110000
0001110011100000
0001100111000000
0011110011100000
0011100001100000
0111100001110000
0011000000111000
0000000000000000
0000000000000000
